\ENCODING=ISO-8859-1
\Problem name: 

Minimize
 obj: x1 + x2 + x3 + x4 + x5 + x6 + x7 + x8 + x9 + x10 + x11 + x12 + x13 + x14
      + x15 + x16 + x17 + x18 + x19 + x20 + 2 x21 + 2 x22 + 2 x23 + 2 x24
      + 2 x25 + 2 x26 + 2 x27 + 2 x28 + 2 x29 + 2 x30 + 2 x31 + 2 x32 + 2 x33
      + 2 x34 + 2 x35 + 2 x36 + 2 x37 + 2 x38 + 2 x39 + 2 x40 + 3 x41 + 3 x42
      + 3 x43 + 3 x44 + 3 x45 + 3 x46 + 3 x47 + 3 x48 + 3 x49 + 3 x50 + 3 x51
      + 3 x52 + 3 x53 + 3 x54 + 3 x55 + 3 x56 + 4 x57 + 4 x58 + 4 x59 + 4 x60
      + 4 x61 + 4 x62 + 4 x63 + 4 x64 + 4 x65 + 4 x66 + 4 x67 + 4 x68 + 4 x69
      + 4 x70 + 4 x71 + 4 x72 + 4 x73 + 4 x74 + 4 x75 + 4 x76 + 5 x77 + 5 x78
      + 5 x79 + 5 x80 + 5 x81 + 5 x82 + 5 x83 + 5 x84 + 5 x85 + 5 x86 + 5 x87
      + 5 x88 + 5 x89 + 5 x90 + 5 x91 + 5 x92 + 5 x93 + 5 x94 + 5 x95 + 5 x96
      + 5 x97 + 6 x98 + 6 x99 + 6 x100 + 6 x101 + 6 x102 + 6 x103 + 6 x104
      + 6 x105 + 6 x106 + 6 x107 + 6 x108 + 6 x109 + 6 x110 + 6 x111 + 6 x112
      + 6 x113 + 6 x114 + 6 x115 + 6 x116 + 6 x117 + 6 x118 + 6 x119 + 6 x120
      + 7 x121 + 7 x122 + 7 x123 + 7 x124 + 7 x125 + 7 x126 + 7 x127 + 7 x128
      + 7 x129 + 7 x130 + 7 x131 + 8 x132 + 8 x133 + 8 x134 + 8 x135 + 8 x136
      + 8 x137 + 8 x138 + 8 x139 + 8 x140 + 8 x141 + 8 x142 + 9 x143 + 9 x144
      + 9 x145 + 9 x146 + 9 x147 + 9 x148 + 9 x149 + 9 x150 + 9 x151 + 9 x152
      + 9 x153 + 9 x154 + 9 x155 + 9 x156 + 9 x157 + 9 x158 + 9 x159 + 10 x160
      + 10 x161 + 10 x162 + 10 x163 + 10 x164 + 10 x165 + 10 x166 + 10 x167
      + 10 x168 + 10 x169 + 10 x170 + 10 x171 + 10 x172 + 10 x173 + 10 x174
      + 10 x175 + 10 x176 + 11 x177 + 11 x178 + 11 x179 + 12 x180 + 12 x181
      + 12 x182 + 12 x183 + 12 x184 + 12 x185 + 12 x186 + 13 x187 + 13 x188
      + 13 x189 + 14 x190 + 14 x191 + 14 x192 + 15 x193 + 15 x194 + 15 x195
      + 15 x196 + 15 x197 + 15 x198 + 15 x199 + 16 x200 + 16 x201 + 16 x202
      + 16 x203 + 16 x204 + 17 x205 + 18 x206 + 18 x207 + 18 x208 + 19 x209
      + 19 x210 + 20 x211 + 21 x212 + 23 x213 + 23 x214 + 25 x215 + 25 x216
      + 26 x217 + 27 x218 + 28 x219 + 31 x220 + 33 x221 + 35 x222
Subject To
 c1:   x2 + x57 + x61 + x102 + x120 + x177 >= 1
 c2:   x7 + x21 + x29 + x48 + x51 + x75 + x104 + x109 >= 1
 c3:   x60 + x69 + x107 + x137 + x138 + x182 + x208 >= 1
 c4:   x20 + x24 + x60 + x123 >= 1
 c5:   x24 + x79 + x156 + x170 >= 1
 c6:   x57 + x60 + x85 + x193 >= 1
 c7:   x24 + x89 + x132 >= 1
 c8:   x43 + x47 + x136 + x150 + x192 >= 1
 c9:   x22 + x25 + x88 + x143 >= 1
 c10:  x6 + x9 + x23 + x103 + x108 + x126 + x161 + x196 >= 1
 c11:  x46 + x54 + x105 >= 1
 c12:  x36 + x60 + x83 + x146 >= 1
 c13:  x4 + x122 + x138 + x221 >= 1
 c14:  x50 + x123 + x162 + x198 >= 1
 c15:  x1 + x129 + x210 >= 1
 c16:  x66 + x72 + x82 + x102 + x137 + x142 + x161 + x202 + x213 >= 1
 c17:  x13 + x47 + x117 + x174 >= 1
 c18:  x23 + x92 + x151 + x162 + x173 + x183 >= 1
 c19:  x105 + x217 + x222 >= 1
 c20:  x63 + x103 + x108 + x122 + x182 + x203 + x214 >= 1
 c21:  x183 + x192 + x204 >= 1
 c22:  x135 + x141 + x174 + x179 + x196 + x210 + x211 >= 1
 c23:  x46 + x77 + x136 + x161 + x200 >= 1
 c24:  x84 >= 1
 c25:  x5 + x40 + x118 + x182 >= 1
 c26:  x106 + x124 + x159 + x160 + x167 + x180 + x197 >= 1
 c27:  x24 + x133 + x149 + x160 + x182 >= 1
 c28:  x28 + x83 + x132 >= 1
 c29:  x11 + x93 + x108 + x127 + x133 + x206 >= 1
 c30:  x1 + x99 + x124 + x132 + x178 >= 1
 c31:  x132 + x139 + x153 + x162 + x188 + x217 >= 1
 c32:  x4 + x59 + x64 + x98 + x140 + x197 >= 1
 c33:  x4 + x50 + x107 + x113 + x172 + x207 >= 1
 c34:  x62 + x187 + x207 + x212 >= 1
 c35:  x34 + x80 + x113 >= 1
 c36:  x7 + x41 + x147 >= 1
 c37:  x58 + x170 >= 1
 c38:  x2 + x161 >= 1
 c39:  x23 + x41 + x64 + x77 + x86 + x99 + x165 + x180 + x209 >= 1
 c40:  x110 + x113 + x145 + x194 + x199 + x217 >= 1
 c41:  x43 + x100 + x188 >= 1
 c42:  x107 + x119 + x181 >= 1
 c43:  x3 + x91 + x157 + x160 >= 1
 c44:  x31 + x79 + x82 + x182 >= 1
 c45:  x34 + x103 + x107 + x181 + x220 >= 1
 c46:  x3 + x49 + x56 + x180 >= 1
 c47:  x6 + x64 + x98 + x123 + x135 + x190 + x206 >= 1
 c48:  x2 + x5 + x53 + x78 + x110 >= 1
 c49:  x14 + x100 + x188 + x190 >= 1
 c50:  x161 + x198 >= 1
 c51:  x15 + x22 + x100 + x139 + x152 + x164 + x196 >= 1
 c52:  x49 + x64 + x156 + x169 + x197 + x202 + x213 + x215 >= 1
 c53:  x94 + x114 + x126 + x143 + x162 + x167 + x213 >= 1
 c54:  x142 + x144 + x155 + x217 >= 1
 c55:  x4 + x43 + x52 + x101 + x106 + x207 + x220 >= 1
 c56:  x12 + x57 + x134 + x186 + x195 >= 1
 c57:  x42 + x77 + x79 + x149 + x157 + x158 + x167 + x191 + x194 + x212 + x214
       >= 1
 c58:  x30 + x59 + x77 + x78 + x105 + x180 + x195 + x198 >= 1
 c59:  x77 + x128 + x138 + x153 + x166 + x172 >= 1
 c60:  x88 + x131 + x186 >= 1
 c61:  x111 + x120 + x147 + x156 + x178 + x189 >= 1
 c62:  x14 + x83 + x112 + x123 + x137 + x145 + x212 >= 1
 c63:  x5 + x26 + x33 + x44 + x54 + x68 + x147 >= 1
 c64:  x71 + x179 >= 1
 c65:  x21 + x42 + x48 + x51 + x54 + x66 + x101 + x158 + x179 >= 1
 c66:  x82 + x144 + x160 + x208 + x220 >= 1
 c67:  x1 + x21 + x144 + x163 + x207 >= 1
 c68:  x3 + x52 + x89 + x167 + x201 >= 1
 c69:  x7 + x22 + x26 + x27 + x37 + x90 + x148 + x180 + x200 >= 1
 c70:  x216 + x218 + x219 + x220 + x221 + x222 >= 1
 c71:  x2 + x33 + x88 >= 1
 c72:  x34 + x45 + x61 + x84 + x166 + x184 >= 1
 c73:  x21 + x100 + x111 >= 1
 c74:  x62 + x121 + x174 + x192 >= 1
 c75:  x77 + x83 + x111 + x200 >= 1
 c76:  x135 + x143 + x210 + x215 >= 1
 c77:  x9 + x67 + x101 + x103 >= 1
 c78:  x11 + x106 + x134 + x163 + x164 + x193 + x220 >= 1
 c79:  x8 + x41 + x58 >= 1
 c80:  x8 + x68 + x72 + x155 >= 1
 c81:  x70 + x87 + x114 + x129 + x138 + x139 + x169 >= 1
 c82:  x44 + x58 + x80 + x84 + x136 + x169 + x200 >= 1
 c83:  x16 + x25 + x26 + x58 + x158 + x160 + x178 >= 1
 c84:  x57 + x73 + x79 + x122 + x123 + x129 + x148 + x154 + x220 >= 1
 c85:  x12 + x42 + x73 + x77 + x109 + x216 >= 1
 c86:  x10 + x78 + x81 + x99 + x133 + x194 >= 1
 c87:  x38 + x40 + x112 + x160 + x170 + x171 + x180 + x209 + x214 >= 1
 c88:  x1 + x22 + x125 + x141 + x216 >= 1
 c89:  x15 + x168 + x205 + x213 + x220 >= 1
 c90:  x27 + x45 + x124 + x139 + x143 + x177 + x213 >= 1
 c91:  x123 + x143 + x177 + x194 + x211 >= 1
 c92:  x56 + x59 + x76 >= 1
 c93:  x128 + x201 >= 1
 c94:  x39 + x55 + x65 + x98 + x113 + x121 + x188 >= 1
 c95:  x24 + x78 + x81 + x99 + x162 + x191 >= 1
 c96:  x51 + x71 + x118 + x161 + x165 + x190 >= 1
 c97:  x57 + x66 + x146 + x152 + x166 + x191 + x207 >= 1
 c98:  x53 + x81 + x103 + x105 + x109 + x168 >= 1
 c99:  x9 + x10 + x104 + x150 >= 1
 c100: x1 + x3 + x5 + x18 + x32 + x119 + x140 + x206 >= 1
 c101: x55 + x136 + x177 + x211 + x212 >= 1
 c102: x87 + x91 + x92 + x115 + x151 + x166 + x171 >= 1
 c103: x1 + x38 + x57 + x163 >= 1
 c104: x127 + x173 + x202 + x217 >= 1
 c105: x81 + x98 + x138 + x187 + x194 + x207 + x212 >= 1
 c106: x17 + x200 + x219 >= 1
 c107: x19 + x89 + x116 + x199 >= 1
 c108: x11 + x132 + x183 + x195 >= 1
 c109: x6 + x51 + x134 >= 1
 c110: x63 + x97 + x102 + x118 + x137 + x146 + x201 + x208 >= 1
 c111: x47 + x102 >= 1
 c112: x145 + x153 + x164 + x186 + x201 + x213 >= 1
 c113: x114 + x144 + x154 + x155 + x191 + x199 >= 1
 c114: x2 + x74 + x90 >= 1
 c115: x124 + x134 + x176 >= 1
 c116: x7 + x49 + x58 + x184 >= 1
 c117: x10 + x17 + x163 + x205 >= 1
 c118: x10 + x12 + x98 + x122 + x187 >= 1
 c119: x8 + x53 + x69 + x96 >= 1
 c120: x44 + x135 + x150 + x164 + x207 + x210 + x222 >= 1
 c121: x6 + x25 + x43 + x110 + x128 + x165 >= 1
 c122: x2 + x28 + x45 + x111 + x175 + x178 >= 1
 c123: x23 + x87 + x125 + x199 >= 1
 c124: x4 + x5 + x39 + x48 + x190 >= 1
 c125: x68 + x115 + x145 + x151 + x154 + x206 >= 1
 c126: x115 + x154 + x163 + x181 + x187 + x189 + x196 + x214 >= 1
 c127: x93 + x132 + x134 + x150 + x165 + x197 + x201 + x205 >= 1
 c128: x23 + x46 + x117 + x222 >= 1
 c129: x31 + x189 + x196 >= 1
 c130: x69 + x70 + x86 + x98 + x183 + x203 + x221 >= 1
 c131: x89 + x116 + x164 + x212 >= 1
 c132: x1 + x45 + x50 + x81 + x112 + x173 >= 1
 c133: x63 + x125 + x160 + x207 >= 1
 c134: x100 + x127 + x172 + x174 + x195 >= 1
 c135: x21 + x149 + x184 + x187 >= 1
 c136: x75 + x132 + x192 + x201 + x219 >= 1
 c137: x149 + x188 + x193 + x210 >= 1
 c138: x95 + x96 + x205 + x209 >= 1
 c139: x98 + x133 + x145 + x157 + x194 + x206 >= 1
 c140: x24 + x37 + x206 >= 1
 c141: x23 + x121 + x124 + x148 + x171 + x210 >= 1
 c142: x101 + x151 + x158 + x176 + x181 + x208 >= 1
 c143: x82 + x132 + x213 >= 1
 c144: x29 + x202 >= 1
 c145: x10 + x36 + x47 + x61 + x83 + x133 + x150 + x183 >= 1
 c146: x21 + x23 + x26 + x55 + x86 + x147 >= 1
 c147: x3 + x35 + x163 >= 1
 c148: x8 + x146 >= 1
 c149: x8 + x122 + x185 + x198 + x209 >= 1
 c150: x57 + x67 + x131 + x204 >= 1
 c151: x48 + x144 + x187 + x211 >= 1
 c152: x76 + x165 + x185 + x200 + x205 >= 1
 c153: x5 + x42 + x85 + x119 + x169 + x180 >= 1
 c154: x52 + x157 + x208 >= 1
 c155: x13 + x33 + x41 + x66 + x124 + x126 >= 1
 c156: x1 + x65 + x90 + x101 + x121 >= 1
 c157: x50 + x59 + x90 + x92 + x129 + x133 + x170 + x187 + x218 >= 1
 c158: x6 + x43 + x153 + x172 + x193 >= 1
 c159: x126 + x130 + x181 >= 1
 c160: x7 + x77 >= 1
 c161: x21 + x104 + x122 + x135 + x185 >= 1
 c162: x122 + x130 >= 1
 c163: x22 + x93 >= 1
 c164: x30 + x32 + x62 + x219 >= 1
 c165: x2 + x21 + x88 + x145 + x191 + x213 >= 1
 c166: x3 + x99 + x127 + x183 + x213 >= 1
 c167: x71 + x193 + x199 + x209 >= 1
 c168: x27 + x79 + x99 + x162 + x219 >= 1
 c169: x13 + x27 + x159 + x209 >= 1
 c170: x22 + x160 >= 1
 c171: x9 + x42 + x44 + x95 + x99 + x121 + x181 >= 1
 c172: x29 + x155 + x196 >= 1
 c173: x61 + x63 + x72 + x134 + x182 + x190 + x195 + x200 >= 1
 c174: x109 + x112 + x128 + x136 + x168 + x185 + x195 + x203 + x215 + x217
       + x221 >= 1
 c175: x30 + x32 + x59 + x171 + x191 >= 1
 c176: x28 + x52 + x59 + x143 + x215 >= 1
 c177: x11 + x22 + x26 + x168 + x212 >= 1
 c178: x41 + x58 + x62 + x80 + x94 + x143 + x168 >= 1
 c179: x78 + x98 + x121 + x184 >= 1
 c180: x41 + x106 + x130 + x148 + x161 + x218 >= 1
 c181: x67 + x82 + x125 + x156 + x167 + x221 >= 1
 c182: x25 + x37 + x42 + x162 + x165 + x208 >= 1
 c183: x140 + x141 + x204 >= 1
 c184: x133 + x159 + x164 + x198 + x202 + x206 + x213 >= 1
 c185: x9 + x85 + x149 + x173 >= 1
 c186: x16 + x35 + x62 + x80 + x86 + x87 + x102 + x140 + x164 + x209 >= 1
 c187: x70 + x117 + x132 + x205 >= 1
 c188: x61 + x74 + x146 + x179 + x188 + x209 >= 1
 c189: x41 + x60 + x97 + x137 + x177 + x190 >= 1
 c190: x3 + x84 + x85 + x108 + x151 + x200 >= 1
 c191: x31 + x46 + x80 + x152 + x210 >= 1
 c192: x6 + x35 + x36 + x126 + x166 + x197 + x210 >= 1
 c193: x91 + x121 + x163 + x175 >= 1
 c194: x133 + x178 + x193 + x203 + x214 + x215 >= 1
 c195: x28 + x110 + x175 + x201 >= 1
 c196: x65 + x104 + x152 + x175 + x184 >= 1
 c197: x4 + x144 + x169 + x214 + x220 >= 1
 c198: x44 + x125 + x148 + x206 >= 1
 c199: x25 + x49 + x116 + x121 + x147 + x190 + x204 >= 1
 c200: x41 + x65 + x177 >= 1
Bounds
 0 <= x1 <= 1
 0 <= x2 <= 1
 0 <= x3 <= 1
 0 <= x4 <= 1
 0 <= x5 <= 1
 0 <= x6 <= 1
 0 <= x7 <= 1
 0 <= x8 <= 1
 0 <= x9 <= 1
 0 <= x10 <= 1
 0 <= x11 <= 1
 0 <= x12 <= 1
 0 <= x13 <= 1
 0 <= x14 <= 1
 0 <= x15 <= 1
 0 <= x16 <= 1
 0 <= x17 <= 1
 0 <= x18 <= 1
 0 <= x19 <= 1
 0 <= x20 <= 1
 0 <= x21 <= 1
 0 <= x22 <= 1
 0 <= x23 <= 1
 0 <= x24 <= 1
 0 <= x25 <= 1
 0 <= x26 <= 1
 0 <= x27 <= 1
 0 <= x28 <= 1
 0 <= x29 <= 1
 0 <= x30 <= 1
 0 <= x31 <= 1
 0 <= x32 <= 1
 0 <= x33 <= 1
 0 <= x34 <= 1
 0 <= x35 <= 1
 0 <= x36 <= 1
 0 <= x37 <= 1
 0 <= x38 <= 1
 0 <= x39 <= 1
 0 <= x40 <= 1
 0 <= x41 <= 1
 0 <= x42 <= 1
 0 <= x43 <= 1
 0 <= x44 <= 1
 0 <= x45 <= 1
 0 <= x46 <= 1
 0 <= x47 <= 1
 0 <= x48 <= 1
 0 <= x49 <= 1
 0 <= x50 <= 1
 0 <= x51 <= 1
 0 <= x52 <= 1
 0 <= x53 <= 1
 0 <= x54 <= 1
 0 <= x55 <= 1
 0 <= x56 <= 1
 0 <= x57 <= 1
 0 <= x58 <= 1
 0 <= x59 <= 1
 0 <= x60 <= 1
 0 <= x61 <= 1
 0 <= x62 <= 1
 0 <= x63 <= 1
 0 <= x64 <= 1
 0 <= x65 <= 1
 0 <= x66 <= 1
 0 <= x67 <= 1
 0 <= x68 <= 1
 0 <= x69 <= 1
 0 <= x70 <= 1
 0 <= x71 <= 1
 0 <= x72 <= 1
 0 <= x73 <= 1
 0 <= x74 <= 1
 0 <= x75 <= 1
 0 <= x76 <= 1
 0 <= x77 <= 1
 0 <= x78 <= 1
 0 <= x79 <= 1
 0 <= x80 <= 1
 0 <= x81 <= 1
 0 <= x82 <= 1
 0 <= x83 <= 1
 0 <= x84 <= 1
 0 <= x85 <= 1
 0 <= x86 <= 1
 0 <= x87 <= 1
 0 <= x88 <= 1
 0 <= x89 <= 1
 0 <= x90 <= 1
 0 <= x91 <= 1
 0 <= x92 <= 1
 0 <= x93 <= 1
 0 <= x94 <= 1
 0 <= x95 <= 1
 0 <= x96 <= 1
 0 <= x97 <= 1
 0 <= x98 <= 1
 0 <= x99 <= 1
 0 <= x100 <= 1
 0 <= x101 <= 1
 0 <= x102 <= 1
 0 <= x103 <= 1
 0 <= x104 <= 1
 0 <= x105 <= 1
 0 <= x106 <= 1
 0 <= x107 <= 1
 0 <= x108 <= 1
 0 <= x109 <= 1
 0 <= x110 <= 1
 0 <= x111 <= 1
 0 <= x112 <= 1
 0 <= x113 <= 1
 0 <= x114 <= 1
 0 <= x115 <= 1
 0 <= x116 <= 1
 0 <= x117 <= 1
 0 <= x118 <= 1
 0 <= x119 <= 1
 0 <= x120 <= 1
 0 <= x121 <= 1
 0 <= x122 <= 1
 0 <= x123 <= 1
 0 <= x124 <= 1
 0 <= x125 <= 1
 0 <= x126 <= 1
 0 <= x127 <= 1
 0 <= x128 <= 1
 0 <= x129 <= 1
 0 <= x130 <= 1
 0 <= x131 <= 1
 0 <= x132 <= 1
 0 <= x133 <= 1
 0 <= x134 <= 1
 0 <= x135 <= 1
 0 <= x136 <= 1
 0 <= x137 <= 1
 0 <= x138 <= 1
 0 <= x139 <= 1
 0 <= x140 <= 1
 0 <= x141 <= 1
 0 <= x142 <= 1
 0 <= x143 <= 1
 0 <= x144 <= 1
 0 <= x145 <= 1
 0 <= x146 <= 1
 0 <= x147 <= 1
 0 <= x148 <= 1
 0 <= x149 <= 1
 0 <= x150 <= 1
 0 <= x151 <= 1
 0 <= x152 <= 1
 0 <= x153 <= 1
 0 <= x154 <= 1
 0 <= x155 <= 1
 0 <= x156 <= 1
 0 <= x157 <= 1
 0 <= x158 <= 1
 0 <= x159 <= 1
 0 <= x160 <= 1
 0 <= x161 <= 1
 0 <= x162 <= 1
 0 <= x163 <= 1
 0 <= x164 <= 1
 0 <= x165 <= 1
 0 <= x166 <= 1
 0 <= x167 <= 1
 0 <= x168 <= 1
 0 <= x169 <= 1
 0 <= x170 <= 1
 0 <= x171 <= 1
 0 <= x172 <= 1
 0 <= x173 <= 1
 0 <= x174 <= 1
 0 <= x175 <= 1
 0 <= x176 <= 1
 0 <= x177 <= 1
 0 <= x178 <= 1
 0 <= x179 <= 1
 0 <= x180 <= 1
 0 <= x181 <= 1
 0 <= x182 <= 1
 0 <= x183 <= 1
 0 <= x184 <= 1
 0 <= x185 <= 1
 0 <= x186 <= 1
 0 <= x187 <= 1
 0 <= x188 <= 1
 0 <= x189 <= 1
 0 <= x190 <= 1
 0 <= x191 <= 1
 0 <= x192 <= 1
 0 <= x193 <= 1
 0 <= x194 <= 1
 0 <= x195 <= 1
 0 <= x196 <= 1
 0 <= x197 <= 1
 0 <= x198 <= 1
 0 <= x199 <= 1
 0 <= x200 <= 1
 0 <= x201 <= 1
 0 <= x202 <= 1
 0 <= x203 <= 1
 0 <= x204 <= 1
 0 <= x205 <= 1
 0 <= x206 <= 1
 0 <= x207 <= 1
 0 <= x208 <= 1
 0 <= x209 <= 1
 0 <= x210 <= 1
 0 <= x211 <= 1
 0 <= x212 <= 1
 0 <= x213 <= 1
 0 <= x214 <= 1
 0 <= x215 <= 1
 0 <= x216 <= 1
 0 <= x217 <= 1
 0 <= x218 <= 1
 0 <= x219 <= 1
 0 <= x220 <= 1
 0 <= x221 <= 1
 0 <= x222 <= 1
Binaries
 x1  x2  x3  x4  x5  x6  x7  x8  x9  x10  x11  x12  x13  x14  x15  x16  x17 
 x18  x19  x20  x21  x22  x23  x24  x25  x26  x27  x28  x29  x30  x31  x32 
 x33  x34  x35  x36  x37  x38  x39  x40  x41  x42  x43  x44  x45  x46  x47 
 x48  x49  x50  x51  x52  x53  x54  x55  x56  x57  x58  x59  x60  x61  x62 
 x63  x64  x65  x66  x67  x68  x69  x70  x71  x72  x73  x74  x75  x76  x77 
 x78  x79  x80  x81  x82  x83  x84  x85  x86  x87  x88  x89  x90  x91  x92 
 x93  x94  x95  x96  x97  x98  x99  x100  x101  x102  x103  x104  x105  x106 
 x107  x108  x109  x110  x111  x112  x113  x114  x115  x116  x117  x118  x119 
 x120  x121  x122  x123  x124  x125  x126  x127  x128  x129  x130  x131  x132 
 x133  x134  x135  x136  x137  x138  x139  x140  x141  x142  x143  x144  x145 
 x146  x147  x148  x149  x150  x151  x152  x153  x154  x155  x156  x157  x158 
 x159  x160  x161  x162  x163  x164  x165  x166  x167  x168  x169  x170  x171 
 x172  x173  x174  x175  x176  x177  x178  x179  x180  x181  x182  x183  x184 
 x185  x186  x187  x188  x189  x190  x191  x192  x193  x194  x195  x196  x197 
 x198  x199  x200  x201  x202  x203  x204  x205  x206  x207  x208  x209  x210 
 x211  x212  x213  x214  x215  x216  x217  x218  x219  x220  x221  x222 
End
